(declare-const a Real)
(declare-const b Real)
(declare-const c Real)
(assert (= (+ a b c) 3))
(assert (> a 0))
(assert (> b 0))
(assert (> c 0))
(assert (not (<= (+ (* (pow (* (pow c (* 2656 (pow a 4))) (pow (* b (pow a 3)) (* 2688 b))) (pow (+ (* 2656 (pow a 4)) (* 2688 b)) -1)) (+ (* -2688 b) (* -2656 (pow a 4)))) (* -8832 a (pow c 4)) (* -8832 b (pow a 4)) (* -8544 c (pow b 4)) (* -2944 a (pow b 4)) (* -2944 b (pow c 4)) (* -2688 (pow a 2) (pow c 3)) (* 108 c (pow (+ a b) 4)) (* 1920 (pow b 3) (pow c 2)) (* 2688 (pow a 2) (pow b 3)) (* 2688 (pow b 2) (pow c 3)) (* 7296 (pow a 3) (pow c 2)) (* 7168 a b (pow c 3)) (* 8320 a c (pow b 3)) (* 8320 b c (pow a 3))) 0)))
(check-sat)
(get-model)
(exit)